(declare-fun T_32t3_15845_567 () (_ BitVec 32))
(declare-fun a () (_ BitVec 32))
(declare-fun T_1t0_15824_508 () (_ BitVec 1))
(declare-fun T_32t5_15829_507 () (_ BitVec 32))
(declare-fun R_ZF_13_502 () (_ BitVec 1))
(declare-fun T_32t3_15837_480 () (_ BitVec 32))
(declare-fun T_32t1_15835_479 () (_ BitVec 32))
(declare-fun b () (_ BitVec 1))
(declare-fun T_32t5_15851_468 () (_ BitVec 32))
(declare-fun R_ZF_13_463 () (_ BitVec 1))
(declare-fun T_32t3_15859_441 () (_ BitVec 32))
(declare-fun T_32t1_15857_440 () (_ BitVec 32))
(declare-fun c () (_ BitVec 1))
(declare-fun d () (_ BitVec 32))
(declare-fun R_ZF_13_363 () (_ BitVec 1))
(declare-fun T_1245_15871_340 () (_ BitVec 32))
(declare-fun T_1t0_15873_236 () (_ BitVec 1))
(declare-fun T_32t5_15878_235 () (_ BitVec 32))
(declare-fun R_ZF_13_225 () (_ BitVec 1))
(declare-fun e () (_ BitVec 32))
(declare-fun f () (_ BitVec 32))
(declare-fun T_8t0_15879_199 () (_ BitVec 8))
(declare-fun T_32t3_15889_197 () (_ BitVec 32))
(declare-fun T_8t4_15890_196 () (_ BitVec 8))
(declare-fun T_32t1_15887_195 () (_ BitVec 32))
(declare-fun T_32t3_15894_192 () (_ BitVec 32))
(declare-fun T_32t1_15892_191 () (_ BitVec 32))
(declare-fun g () (_ BitVec 32))
(declare-fun h () (_ BitVec 32))
(declare-fun i () (Array (_ BitVec 32) (_ BitVec 8)))
(declare-fun mem_35_677 () (Array (_ BitVec 32) (_ BitVec 8)))
(declare-fun mem_35_672 () (Array (_ BitVec 32) (_ BitVec 8)))
(declare-fun j () (Array (_ BitVec 32) (_ BitVec 8)))
(declare-fun k () (Array (_ BitVec 32) (_ BitVec 8)))
(declare-fun t_667 () (_ BitVec 1))
(declare-fun t_666 () (_ BitVec 1))
(declare-fun t_665 () (_ BitVec 1))
(declare-fun l () (_ BitVec 1))
(declare-fun t_663 () (_ BitVec 1))
(declare-fun m () (_ BitVec 1))
(declare-fun t_661 () (_ BitVec 1))
(declare-fun t_660 () (_ BitVec 1))
(declare-fun t_659 () (_ BitVec 1))
(declare-fun t_658 () (_ BitVec 1))
(declare-fun n () (_ BitVec 1))
(declare-fun t_656 () (_ BitVec 1))
(declare-fun t_655 () (_ BitVec 1))
(declare-fun o () (_ BitVec 1))
(declare-fun t_653 () (_ BitVec 1))
(declare-fun t_652 () (_ BitVec 1))
(declare-fun p () (_ BitVec 1))
(declare-fun q () (_ BitVec 1))
(declare-fun t_649 () (_ BitVec 1))
(declare-fun t_648 () (_ BitVec 1))
(declare-fun t_647 () (_ BitVec 1))
(declare-fun t_646 () (_ BitVec 1))
(declare-fun t_645 () (_ BitVec 1))
(declare-fun r () (_ BitVec 1))
(declare-fun t_643 () (_ BitVec 1))
(declare-fun t_642 () (_ BitVec 1))
(declare-fun t_641 () (_ BitVec 1))
(declare-fun t_640 () (_ BitVec 1))
(declare-fun s () (_ BitVec 1))
(declare-fun t () (_ BitVec 1))
(declare-fun u () (_ BitVec 1))
(declare-fun t_636 () (_ BitVec 1))
(declare-fun v () (_ BitVec 32))
(declare-fun t_635 () (_ BitVec 1))
(declare-fun t_634 () (_ BitVec 1))
(declare-fun w () (_ BitVec 1))
(declare-fun t_632 () (_ BitVec 1))
(declare-fun t_631 () (_ BitVec 1))
(declare-fun R_EBP_0_60 () (_ BitVec 32))
(declare-fun t_630 () (_ BitVec 1))
(declare-fun t_629 () (_ BitVec 1))
(declare-fun R_ESP_1_58 () (_ BitVec 32))
(declare-fun t_628 () (_ BitVec 1))
(declare-fun t_627 () (_ BitVec 1))
(declare-fun t_626 () (_ BitVec 1))
(declare-fun x () (_ BitVec 1))
(declare-fun t_624 () (_ BitVec 1))
(declare-fun t_623 () (_ BitVec 1))
(declare-fun t_622 () (_ BitVec 1))
(declare-fun y () (_ BitVec 1))
(declare-fun T_32t1_15839_570 () (_ BitVec 32))
(assert (= (_ bv1 1) (bvand (bvashr (bvsdiv (bvudiv (bvand (bvand
 (bvand (bvand (bvxnor (bvand (bvudiv (bvand (bvand (bvand (bvmul
 (bvand (bvand (bvand (bvand (bvand (bvmul (bvand (bvand (bvand
 (bvand (bvand (bvadd (bvadd (bvand (bvand (bvand (bvsub (bvand
 (bvand (bvand (bvashr (bvand (bvand (bvand (bvmul (bvashr (bvxnor
 (bvxnor (bvsmod (bvand (bvnor (bvsdiv (ite (= t_667 (ite (= h
 (bvudiv R_ESP_1_58 (_ bv4 32))) (_ bv1 1) (_ bv0 1))) (_ bv1 1) (_
 bv0 1)) (ite (= t_666 (ite (= k (store (store (store (store j (bvadd
 h (_ bv3 32)) ((_ extract 7 0) (bvnor R_EBP_0_60 (_ bv24 32))))
 (bvlshr h (_ bv2 32)) ((_ extract 7 0) (bvlshr R_EBP_0_60 (_ bv16
 32)))) (bvashr h (_ bv1 32)) ((_ extract 7 0) (bvlshr R_EBP_0_60 (_
 bv8 32)))) (bvmul h (_ bv0 32)) ((_ extract 7 0) R_EBP_0_60))) (_
 bv1 1) (_ bv0 1))) (_ bv1 1) (_ bv0 1))) (ite (= t_665 (ite (= g
 (bvsub h (_ bv4 32))) (_ bv1 1) (_ bv0 1))) (_ bv1 1) (_ bv0 1)))
 (ite (= l (ite (= mem_35_672 (store (store (store (store k (bvor g
 (_ bv3 32)) ((_ extract 7 0) (bvashr v (_ bv24 32)))) (bvadd g (_
 bv2 32)) ((_ extract 7 0) (bvsmod v (_ bv16 32)))) (bvadd g (_ bv1
 32)) ((_ extract 7 0) (bvlshr v (_ bv8 32)))) (bvor g (_ bv0 32))
 ((_ extract 7 0) v))) (_ bv1 1) (_ bv0 1))) (_ bv1 1) (_ bv0 1)))
 (ite (= t_663 (ite (= T_32t1_15892_191 (bvor h (_ bv12 32))) (_ bv1
 1) (_ bv0 1))) (_ bv1 1) (_ bv0 1))) (ite (= m (ite (=
 T_32t3_15894_192 (bvor (bvor (bvashr (concat (_ bv0 24) (select
 mem_35_672 (bvadd T_32t1_15892_191 (_ bv0 32)))) (bvshl (concat (_
 bv0 24) (select mem_35_672 (bvadd T_32t1_15892_191 (_ bv1 32)))) (_
 bv8 32))) (bvlshr (concat (_ bv0 24) (select mem_35_672 (bvadd
 T_32t1_15892_191 (_ bv2 32)))) (_ bv16 32))) (bvshl (concat (_ bv0
 24) (select mem_35_672 (bvadd T_32t1_15892_191 (_ bv3 32)))) (_ bv24
 32)))) (_ bv1 1) (_ bv0 1))) (_ bv1 1) (_ bv0 1))) (ite (= t_661
 (ite (= T_32t1_15887_195 (bvadd T_32t3_15894_192 (_ bv24 32))) (_
 bv1 1) (_ bv0 1))) (_ bv1 1) (_ bv0 1))) (ite (= t_660 (ite (=
 T_8t4_15890_196 (select mem_35_672 T_32t1_15887_195)) (_ bv1 1) (_
 bv0 1))) (_ bv1 1) (_ bv0 1))) (ite (= t_659 (ite (=
 T_32t3_15889_197 (concat (_ bv0 24) T_8t4_15890_196)) (_ bv1 1) (_
 bv0 1))) (_ bv1 1) (_ bv0 1))) (ite (= t_658 (ite (= T_8t0_15879_199
 ((_ extract 7 0) T_32t3_15889_197)) (_ bv1 1) (_ bv0 1))) (_ bv1 1)
 (_ bv0 1))) (ite (= n (ite (= f (concat (_ bv0 24) T_8t0_15879_199))
 (_ bv1 1) (_ bv0 1))) (_ bv1 1) (_ bv0 1))) (ite (= t_656 (ite (= e
 (bvand (bvsub f (_ bv11 32)) (_ bv255 32))) (_ bv1 1) (_ bv0 1))) (_
 bv1 1) (_ bv0 1))) (ite (= t_655 (ite (= R_ZF_13_225 (ite (= e (_
 bv0 32)) (_ bv1 1) (_ bv0 1))) (_ bv1 1) (_ bv0 1))) (_ bv1 1) (_
 bv0 1))) (ite (= o (ite (= T_32t5_15878_235 (concat (_ bv0 31)
 R_ZF_13_225)) (_ bv1 1) (_ bv0 1))) (_ bv1 1) (_ bv0 1))) (ite (=
 t_653 (ite (= T_1t0_15873_236 ((_ extract 0 0) T_32t5_15878_235)) (_
 bv1 1) (_ bv0 1))) (_ bv1 1) (_ bv0 1))) (ite (= t_652 (bvsub t_645
 (bvmul p (bvand q (bvand t_649 (bvnand t_648 (bvsmod t_647
 t_646))))))) (_ bv1 1) (_ bv0 1))) (ite (= p (bvnot
 T_1t0_15873_236)) (_ bv1 1) (_ bv0 1))) (ite (= q (ite (=
 T_1245_15871_340 (bvand (bvnor f (_ bv16 32)) (_ bv255 32))) (_ bv1
 1) (_ bv0 1))) (_ bv1 1) (_ bv0 1))) (ite (= t_649 (ite (=
 R_ZF_13_363 (ite (= T_1245_15871_340 (_ bv0 32)) (_ bv1 1) (_ bv0
 1))) (_ bv1 1) (_ bv0 1))) (_ bv1 1) (_ bv0 1))) (ite (= t_648 (ite
 (= d (concat (_ bv0 31) R_ZF_13_363)) (_ bv1 1) (_ bv0 1))) (_ bv1
 1) (_ bv0 1))) (ite (= t_647 (ite (= c ((_ extract 0 0) d)) (_ bv1
 1) (_ bv0 1))) (_ bv1 1) (_ bv0 1))) (ite (= t_646 (bvand t_631
 (bvand r (bvand t_643 (bvxnor t_642 (bvand t_641 (bvnand t_640
 (bvand s (bvand t (bvnand u (bvsdiv t_636 (bvurem t_635 (bvand t_634
 (bvshl w t_632)))))))))))))) (_ bv1 1) (_ bv0 1))) (ite (= t_645
 T_1t0_15873_236) (_ bv1 1) (_ bv0 1))) (ite (= r (bvnot c)) (_ bv1
 1) (_ bv0 1))) (ite (= t_643 (ite (= T_32t1_15857_440 (bvadd
 T_32t3_15894_192 (_ bv4 32))) (_ bv1 1) (_ bv0 1))) (_ bv1 1) (_ bv0
 1))) (ite (= t_642 (ite (= T_32t3_15859_441 (bvadd (bvor (bvurem
 (concat (_ bv0 24) (select mem_35_672 (bvxor T_32t1_15857_440 (_ bv0
 32)))) (bvsdiv (concat (_ bv0 24) (select mem_35_672 (bvadd
 T_32t1_15857_440 (_ bv1 32)))) (_ bv8 32))) (bvsub (concat (_ bv0
 24) (select mem_35_672 (bvxor T_32t1_15857_440 (_ bv2 32)))) (_ bv16
 32))) (bvshl (concat (_ bv0 24) (select mem_35_672 (bvsmod
 T_32t1_15857_440 (_ bv3 32)))) (_ bv24 32)))) (_ bv1 1) (_ bv0 1)))
 (_ bv1 1) (_ bv0 1))) (ite (= t_641 (ite (= R_ZF_13_463 (ite (=
 T_32t3_15859_441 (_ bv0 32)) (_ bv1 1) (_ bv0 1))) (_ bv1 1) (_ bv0
 1))) (_ bv1 1) (_ bv0 1))) (ite (= t_640 (ite (= T_32t5_15851_468
 (concat (_ bv0 31) R_ZF_13_463)) (_ bv1 1) (_ bv0 1))) (_ bv1 1) (_
 bv0 1))) (ite (= s (ite (= b ((_ extract 0 0) T_32t5_15851_468)) (_
 bv1 1) (_ bv0 1))) (_ bv1 1) (_ bv0 1))) (ite (= t (bvor (bvand
 t_622 y) (bvand t_628 (bvand t_627 (bvand t_626 (bvand x (bvand
 t_624 t_623))))))) (_ bv1 1) (_ bv0 1))) (ite (= u (ite (=
 T_32t1_15835_479 (bvmul T_32t3_15894_192 (_ bv8 32))) (_ bv1 1) (_
 bv0 1))) (_ bv1 1) (_ bv0 1))) (ite (= t_636 (ite (=
 T_32t3_15837_480 (bvor (bvor (bvxor (concat (_ bv0 24) (select
 mem_35_677 (bvxnor T_32t1_15835_479 (_ bv0 32)))) (bvnor (concat (_
 bv0 24) (select mem_35_677 (bvadd T_32t1_15835_479 (_ bv1 32)))) (_
 bv8 32))) (bvsub (concat (_ bv0 24) (select mem_35_677 (bvadd
 T_32t1_15835_479 (_ bv2 32)))) (_ bv16 32))) (bvshl (concat (_ bv0
 24) (select mem_35_677 (bvadd T_32t1_15835_479 (_ bv3 32)))) (_ bv24
 32)))) (_ bv1 1) (_ bv0 1))) (_ bv1 1) (_ bv0 1))) (ite (= t_635
 (ite (= R_ZF_13_502 (ite (= T_32t3_15837_480 (_ bv0 32)) (_ bv1 1)
 (_ bv0 1))) (_ bv1 1) (_ bv0 1))) (_ bv1 1) (_ bv0 1))) (ite (=
 t_634 (ite (= T_32t5_15829_507 (concat (_ bv0 31) R_ZF_13_502)) (_
 bv1 1) (_ bv0 1))) (_ bv1 1) (_ bv0 1))) (ite (= w (ite (=
 T_1t0_15824_508 ((_ extract 0 0) T_32t5_15829_507)) (_ bv1 1) (_ bv0
 1))) (_ bv1 1) (_ bv0 1))) (ite (= t_632 (bvand t_629 t_630)) (_ bv1
 1) (_ bv0 1))) (ite (= t_631 c) (_ bv1 1) (_ bv0 1))) (ite (= t_630
 T_1t0_15824_508 ) (_ bv1 1) (_ bv0 1))) (ite (= t_629
 T_1t0_15824_508) (_ bv1 1) (_ bv0 1))) (ite (= t_628 b ) (_ bv1 1)
 (_ bv0 1))) (ite (= t_627 (ite (= a (bvadd T_32t3_15894_192 (_ bv16
 32))) (_ bv1 1) (_ bv0 1))) (_ bv1 1) (_ bv0 1))) (ite (= t_626 (ite
 (= T_32t3_15845_567 (bvor (bvurem (bvand (concat (_ bv0 24) (select
 mem_35_672 (bvadd a (_ bv0 32)))) (bvor (concat (_ bv0 24) (select
 mem_35_672 (bvadd a (_ bv1 32)))) (_ bv8 32))) (bvshl (concat (_ bv0
 24) (select mem_35_672 (bvxnor a (_ bv2 32)))) (_ bv16 32))) (bvxnor
 (concat (_ bv0 24) (select mem_35_672 (bvadd a (_ bv3 32)))) (_ bv24
 32)))) (_ bv1 1) (_ bv0 1))) (_ bv1 1) (_ bv0 1))) (ite (= x (ite (=
 T_32t1_15839_570 (bvadd T_32t3_15859_441 (_ bv16 32))) (_ bv1 1) (_
 bv0 1))) (_ bv1 1) (_ bv0 1))) (ite (= t_624 (ite (= i (store (store
 (store (store mem_35_672 (bvsub T_32t1_15839_570 (_ bv3 32)) ((_
 extract 7 0) (bvsub T_32t3_15845_567 (_ bv24 32)))) (bvadd
 T_32t1_15839_570 (_ bv2 32)) ((_ extract 7 0) (bvlshr
 T_32t3_15845_567 (_ bv16 32)))) (bvand T_32t1_15839_570 (_ bv1 32))
 ((_ extract 7 0) (bvand T_32t3_15845_567 (_ bv8 32)))) (bvadd
 T_32t1_15839_570 (_ bv0 32)) ((_ extract 7 0) T_32t3_15845_567))) (_
 bv1 1) (_ bv0 1))) (_ bv1 1) (_ bv0 1))) (ite (= t_623 (ite (=
 mem_35_677 i) (_ bv1 1) (_ bv0 1))) (_ bv1 1) (_ bv0 1))) (ite (=
 t_622 b) (_ bv1 1) (_ bv0 1))) (ite (= y (ite (= mem_35_677
 mem_35_672) (_ bv1 1) (_ bv0 1))) (_ bv1 1) (_ bv0 1))) (bvand
 (bvnot (_ bv0 1)) (bvand (bvor t_667 (bvand t_666 (bvand t_665
 (bvand l (bvand t_663 (bvand m (bvor t_661 (bvsmod t_660 (bvand
 t_659 (bvlshr t_658 (bvand n (bvand t_656 (bvsdiv t_655 (bvsub o
 (bvudiv t_653 t_652))))))))))))))) (_ bv1 1))))))
(check-sat)
